10	5
0	6	9	5	2	1	3	4
1	2	6	7
2	2	8	6
3	2	6	10
4	3	10	7	8
5	2	8	7
6	1	11
7	1	11
8	1	11
9	1	11
10	1	11
11	0
0	0	0	0	0	0	0
1	10	1	0	3	4	0
2	4	2	0	4	5	0
3	2	2	2	0	0	0
4	10	4	2	3	0	0
5	5	3	1	0	1	0
6	9	0	0	1	0	3
7	10	2	0	0	4	0
8	10	0	0	0	4	0
9	6	3	0	3	5	0
10	9	3	0	1	5	0
11	0	0	0	0	0	0
7	4	6	8	4
